167	32	4	63	
10	10	10	10

0	0	0	0	0	0	20	1	2	3	6	10	16	17	18	19	20	21	22	23	24	25	26	27	28	29	30
1	1	1	1	0	7	2	12	4
2	2	6	0	1	6	4	15	13	11	9
3	3	4	6	0	5	2	13	7
4	4	5	0	6	4	1	5
5	4	0	4	5	7	1	7
6	2	2	0	6	8	1	7
7	0	7	7	3	7	1	8
8	6	4	0	3	8	1	11
9	0	6	4	6	7	1	12
10	7	0	3	6	3	1	14
11	8	5	0	5	1	1	31
12	6	0	3	5	4	1	31
13	3	5	4	0	1	1	31
14	0	1	4	4	2	1	31
15	4	2	0	3	8	1	31
16	3	2	0	6	8	1	31
17	3	5	3	0	7	1	31
18	0	5	4	3	9	1	31
19	6	0	3	2	3	1	31
20	5	0	6	2	5	1	31
21	0	2	4	6	9	1	31
22	6	3	0	2	2	1	31
23	3	4	0	3	6	1	31
24	5	7	2	0	7	1	31
25	2	0	3	2	2	1	31
26	3	4	6	0	4	1	31
27	2	0	6	5	8	1	31
28	4	0	6	4	5	1	31
29	5	3	3	0	8	1	31
30	3	5	2	0	6	1	31
31	0	0	0	0	0	0
